Route #1: 51 3 44 32
Route #2: 9 39
Route #3: 40 12 17
Route #4: 26 7 35 8
Route #5: 46 34 52
Route #6: 27 13 54 19
Route #7: 14 53
Route #8: 11 38
Route #9: 10 31 25
Route #10: 50 18 24 49
Route #11: 23 43 41 42 1
Route #12: 33 16 6
Route #13: 2 22 28
Route #14: 30 48 21
Route #15: 47 36 37 20
Route #16: 15 5 29 45
Route #17: 4
Cost 980